c This cnf file is generated with the following input: k = 3, n = 150, r = 0.2
p cnf 150 30
33 46 -144 0
-82 145 78 0
22 43 76 0
-119 62 -63 0
-6 87 -122 0
-18 20 107 0
113 -149 -125 0
64 40 -11 0
83 -102 5 0
-136 -126 -80 0
81 37 95 0
-150 -70 -122 0
-54 8 -58 0
-97 -75 -127 0
150 7 72 0
2 -35 -95 0
4 -41 91 0
48 -102 150 0
-12 -61 -48 0
-84 42 -125 0
-36 87 -112 0
80 144 57 0
-2 103 12 0
129 -120 75 0
82 85 -12 0
-81 -71 106 0
49 -19 35 0
68 53 -139 0
-116 44 -15 0
148 -57 73 0
